100
128
13
48
33
6
30
33
12
20
20
35
26
24
18
15
38
31
32
30
62
28
19
61
10
51
59
9
24
38
42
45
45
55
45
47
15
20
24
41
55
27
51
40
44
14
36
14
18
19
29
52
30
49
3
61
11
35
10
13
21
60
42
56
14
47
63
41
15
28
28
12
15
39
4
25
29
47
1
5
39
49
17
17
42
16
51
30
44
39
23
15
5
57
23
4
63
24
1
24
36
29